Problem:    Petroli
Rows:       7
Columns:    7
Non-zeros:  22
Status:     OPTIMAL
Objective:  profitto_con_leggi = 101928.5714 (MAXimum)

   No.   Row name   St   Activity     Lower bound   Upper bound    Marginal
------ ------------ -- ------------- ------------- ------------- -------------
     1 utilizzoMP[Alfa]
                    NS             0            -0             =       38.5714 
     2 utilizzoMP[Beta]
                    NS             0            -0             =       18.5714 
     3 utilizzoMP[Gamma]
                    NS             0            -0             =         < eps
     4 limiteMensile[Alfa]
                    NU          1800                        1800       38.5714 
     5 limiteMensile[Beta]
                    NU          1750                        1750       18.5714 
     6 limiteMensile[Gamma]
                    B        1521.43                        2000 
     7 profitto_con_leggi
                    B         101929                             

   No. Column name  St   Activity     Lower bound   Upper bound    Marginal
------ ------------ -- ------------- ------------- ------------- -------------
     1 x[A]         NL             0             0                    -1.14286 
     2 x[B]         NL             0             0                          -1 
     3 x[C]         B        4571.43             0               
     4 x[D]         B            500             0               
     5 y[Alfa]      B           1800             0               
     6 y[Beta]      B           1750             0               
     7 y[Gamma]     B        1521.43             0               

Karush-Kuhn-Tucker optimality conditions:

KKT.PE: max.abs.err = 0.00e+000 on row 0
        max.rel.err = 0.00e+000 on row 0
        High quality

KKT.PB: max.abs.err = 0.00e+000 on row 0
        max.rel.err = 0.00e+000 on row 0
        High quality

KKT.DE: max.abs.err = 3.55e-015 on column 4
        max.rel.err = 8.26e-017 on column 4
        High quality

KKT.DB: max.abs.err = 0.00e+000 on row 0
        max.rel.err = 0.00e+000 on row 0
        High quality

End of output
